%%
% Autogenerated by /opt/prj/battleships-ai/src/server/solver.py, instance 2 8x8 [6] #1 <c1l5zu>
% Source: https://www.puzzle-battleships.com/?size=2
%%

size = 8;
hints_num = 2;
hints = [| 1, 4 | 3, 1 |];
ships_num = 9;

constr_rows = [3, 1, 6, 0, 3, 2, 4, 0];
constr_cols = [2, 3, 1, 2, 4, 1, 3, 3];

given_ships = [|
<>, <>, <>, <>, 1, |
<>, <>, <>, <>, 1, |
<>, <>, <>, <>, 1, |
<>, <>, <>, <>, 2, |
<>, <>, <>, <>, 2, |
<>, <>, <>, <>, 2, |
<>, <>, <>, <>, 3, |
<>, <>, <>, <>, 3, |
<>, <>, <>, <>, 4  |];

